GLPSOL--GLPK LP/MIP Solver 5.0
Parameter(s) specified in the command line:
 --lp ../modeles/2_94.lp --log 2_94.log
Reading problem data from '../modeles/2_94.lp'...
197 rows, 380 columns, 1322 non-zeros
188 integer variables, all of which are binary
585 lines were read
GLPK Integer Optimizer 5.0
197 rows, 380 columns, 1322 non-zeros
188 integer variables, all of which are binary
Preprocessing...
188 constraint coefficient(s) were reduced
197 rows, 378 columns, 1320 non-zeros
188 integer variables, all of which are binary
Scaling...
 A: min|aij| =  1.811e-03  max|aij| =  4.000e+00  ratio =  2.209e+03
GM: min|aij| =  1.459e-01  max|aij| =  6.856e+00  ratio =  4.700e+01
EQ: min|aij| =  2.128e-02  max|aij| =  1.000e+00  ratio =  4.700e+01
2N: min|aij| =  1.449e-02  max|aij| =  1.704e+00  ratio =  1.177e+02
Constructing initial basis...
Size of triangular part is 197
Solving LP relaxation...
GLPK Simplex Optimizer 5.0
197 rows, 378 columns, 1320 non-zeros
      0: obj =   4.000000000e+00 inf =   9.500e+00 (5)
     25: obj =   3.842057557e-01 inf =   0.000e+00 (0)
*    91: obj =  -1.413604126e+00 inf =   3.751e-16 (0)
OPTIMAL LP SOLUTION FOUND
Integer optimization begins...
Long-step dual simplex will be used
+    91: mip =     not found yet >=              -inf        (1; 0)
+    92: >>>>>  -1.413604126e+00 >=  -1.413604126e+00 < 0.1% (2; 0)
+    92: mip =  -1.413604126e+00 >=     tree is empty   0.0% (0; 3)
INTEGER OPTIMAL SOLUTION FOUND
Time used:   0.0 secs
Memory used: 0.6 Mb (579068 bytes)
